c *********************************
c * Circuit generated by BenCGen
c *
c * Demultiplexer_3_8
c *
c * Ports with 1 gate(s): 4
c * Ports with 2 gate(s): 9
c * Ports with 3 gate(s): 8
c * Total gates: 21
c *********************************
p cnf 25 67
1 14 0
-1 -14 0
1 -13 0
14 -13 0
-1 -14 13 0
2 23 0
-2 -23 0
3 24 0
-3 -24 0
4 25 0
-4 -25 0
23 -15 0
24 -15 0
25 -15 0
-23 -24 -25 15 0
2 -16 0
24 -16 0
25 -16 0
-2 -24 -25 16 0
23 -17 0
3 -17 0
25 -17 0
-23 -3 -25 17 0
2 -18 0
3 -18 0
25 -18 0
-2 -3 -25 18 0
23 -19 0
24 -19 0
4 -19 0
-23 -24 -4 19 0
2 -20 0
24 -20 0
4 -20 0
-2 -24 -4 20 0
23 -21 0
3 -21 0
4 -21 0
-23 -3 -4 21 0
2 -22 0
3 -22 0
4 -22 0
-2 -3 -4 22 0
1 -5 0
15 -5 0
-1 -15 5 0
1 -6 0
16 -6 0
-1 -16 6 0
1 -7 0
17 -7 0
-1 -17 7 0
1 -8 0
18 -8 0
-1 -18 8 0
1 -9 0
19 -9 0
-1 -19 9 0
1 -10 0
20 -10 0
-1 -20 10 0
1 -11 0
21 -11 0
-1 -21 11 0
1 -12 0
22 -12 0
-1 -22 12 0
